40
    44    88    60    35    10    90    72    81    55    54    83    87    38    52    53    37    47     6    21    17    96    90     4    17    30    34    98    30    19    19    75    51    63    80    86    78    91     5    61    16
     8     4     9     8     1     8     9     4     6    10     4     4     8     1     6     4     7     8     3     1     5     5     6     2     9     1     8     6     7     1     8     1     5     7     7     9     6     4     8     1
   442   276   351   442   237   620   484   503   402   408   473   293   252   381   379   331   506   370   377   507   354   422   414   276   511   480   475   293   301   259   237   545   286   582   578   338   590   371   335   556
